0 0 0 0
0 1 2 0
0 2 2 0
0 3 1 0
0 4 0 3
0 5 0 8
0 6 0 4
0 7 0 11
0 8 0 5
0 9 1 10
0 10 0 17
0 11 0 15
0 12 2 5
0 13 0 15
0 14 1 5
0 15 0 19
0 16 2 8
0 17 2 19
0 18 2 14
0 19 2 22
0 20 2 5
0 21 2 22
0 22 0 19
0 23 1 16
0 24 2 16
0 25 1 24
0 26 2 16
0 27 1 24
0 28 0 29
0 29 0 29
0 30 0 32
0 31 0 35
